20
20
514
475
472
463
455
411
362
357
293
288
282
272
267
183
95
79
77
55
37
34
58	458
242	642
463	863
485	885
625	1025
744	1144
867	1267
896	1296
909	1309
937	1337
169	569
300	700
365	765
431	831
437	837
453	853
574	974
583	983
661	1061
762	1162
